\ LP format - for model browsing. Use MPS format to capture full model detail.
Minimize
  2 x0 - 5 x1
Subject To
 constr(0): 2 x0 + 5 x1 <= 2
 constr(1): 3 x0 - 4 x1 >= -0
 constr(2): x0 + 2 x1 >= -7
Bounds
 x0 <= 2
 x1 <= 2
Generals
 x0 x1
End
